p cnf 21 10
a 1 0
e 2 3 0
a 4 0
e 5 6 0
a 7 0
e 8 0
a 9 10 0
e 11 12 0
a 13 0
e 14 0
a 15 16 17 0
e 18 19 0
a 20 21 0
15 5 11 -2 12 0
10 11 -17 -21 0
-6 3 -5 -18 19 0
-14 12 1 0
-8 -5 -2 -4 19 0
11 5 14 15 20 0
16 4 19 0
-8 21 -20 -7 12 0
6 -7 0
10 1 16 3 0
